(set-logic QF_UF)
(declare-fun car () Bool)
(declare-fun circuit () Bool)
(declare-fun clk () Bool)
(declare-fun prt () Bool)
(assert (not (not (or (not car) clk))))
(assert (or (not prt) (not (or (not car) clk))))
(assert prt)
(check-sat)
(exit)
